<?xml version = "1.0" standalone="yes"?>
<!-- This file has been generated by DOcplex version 2.23.222  -->
<CPLEXSolution version="1.0">
 <header
   problemName="CVRP"
   objectiveValue="16194.3"
  />
 <variables>
  <variable name="x_0_3" index="2" value="1.00000"/>
  <variable name="x_0_7" index="6" value="1.00000"/>
  <variable name="x_0_8" index="7" value="1.00000"/>
  <variable name="x_0_10" index="9" value="1.00000"/>
  <variable name="x_0_11" index="10" value="1.00000"/>
  <variable name="x_0_12" index="11" value="1.00000"/>
  <variable name="x_0_14" index="13" value="1.00000"/>
  <variable name="x_0_16" index="15" value="1.00000"/>
  <variable name="x_0_18" index="17" value="1.00000"/>
  <variable name="x_0_19" index="18" value="1.00000"/>
  <variable name="x_0_21" index="20" value="1.00000"/>
  <variable name="x_0_22" index="21" value="1.00000"/>
  <variable name="x_0_25" index="24" value="1.00000"/>
  <variable name="x_0_28" index="27" value="1.00000"/>
  <variable name="x_1_0" index="29" value="1.00000"/>
  <variable name="x_2_0" index="58" value="1.00000"/>
  <variable name="x_3_17" index="103" value="1.00000"/>
  <variable name="x_4_0" index="116" value="1.00000"/>
  <variable name="x_5_0" index="145" value="1.00000"/>
  <variable name="x_6_9" index="182" value="1.00000"/>
  <variable name="x_7_27" index="229" value="1.00000"/>
  <variable name="x_8_20" index="251" value="1.00000"/>
  <variable name="x_9_0" index="261" value="1.00000"/>
  <variable name="x_10_1" index="291" value="1.00000"/>
  <variable name="x_11_15" index="333" value="1.00000"/>
  <variable name="x_12_6" index="354" value="1.00000"/>
  <variable name="x_13_0" index="377" value="1.00000"/>
  <variable name="x_14_23" index="428" value="1.00000"/>
  <variable name="x_15_26" index="460" value="1.00000"/>
  <variable name="x_16_29" index="492" value="1.00000"/>
  <variable name="x_17_13" index="506" value="1.00000"/>
  <variable name="x_18_0" index="522" value="1.00000"/>
  <variable name="x_19_5" index="556" value="1.00000"/>
  <variable name="x_20_0" index="580" value="1.00000"/>
  <variable name="x_21_0" index="609" value="1.00000"/>
  <variable name="x_22_4" index="642" value="1.00000"/>
  <variable name="x_23_0" index="667" value="1.00000"/>
  <variable name="x_24_0" index="696" value="1.00000"/>
  <variable name="x_25_24" index="749" value="1.00000"/>
  <variable name="x_26_0" index="754" value="1.00000"/>
  <variable name="x_27_2" index="785" value="1.00000"/>
  <variable name="x_28_0" index="812" value="1.00000"/>
  <variable name="x_29_0" index="841" value="1.00000"/>
  <variable name="u_1" index="870" value="60.00000"/>
  <variable name="u_2" index="871" value="60.00000"/>
  <variable name="u_3" index="872" value="27.00000"/>
  <variable name="u_4" index="873" value="60.00000"/>
  <variable name="u_5" index="874" value="57.00000"/>
  <variable name="u_6" index="875" value="47.00000"/>
  <variable name="u_7" index="876" value="47.00000"/>
  <variable name="u_8" index="877" value="34.00000"/>
  <variable name="u_9" index="878" value="56.00000"/>
  <variable name="u_10" index="879" value="26.00000"/>
  <variable name="u_11" index="880" value="30.00000"/>
  <variable name="u_12" index="881" value="7.00000"/>
  <variable name="u_13" index="882" value="57.00000"/>
  <variable name="u_14" index="883" value="11.00000"/>
  <variable name="u_15" index="884" value="51.00000"/>
  <variable name="u_16" index="885" value="6.00000"/>
  <variable name="u_17" index="886" value="38.00000"/>
  <variable name="u_18" index="887" value="58.00000"/>
  <variable name="u_19" index="888" value="38.00000"/>
  <variable name="u_20" index="889" value="60.00000"/>
  <variable name="u_21" index="890" value="59.00000"/>
  <variable name="u_22" index="891" value="36.00000"/>
  <variable name="u_23" index="892" value="57.00000"/>
  <variable name="u_24" index="893" value="60.00000"/>
  <variable name="u_25" index="894" value="28.00000"/>
  <variable name="u_26" index="895" value="60.00000"/>
  <variable name="u_27" index="896" value="53.00000"/>
  <variable name="u_28" index="897" value="50.00000"/>
  <variable name="u_29" index="898" value="56.00000"/>
 </variables>
</CPLEXSolution>
